c ---- [ banner ] ------------------------------------------------------------
c
c Kissat SAT Solver
c 
c Copyright (c) 2021-2024 Armin Biere University of Freiburg
c Copyright (c) 2019-2021 Armin Biere Johannes Kepler University Linz
c 
c Version 4.0.1 43f02cf3e992cb44653b35e5cb26f93281552ae0
c gcc (Ubuntu 13.2.0-23ubuntu4) 13.2.0 -W -Wall -O3 -DNDEBUG
c Thu Sep 12 12:27:46 CEST 2024 Linux abryzen9 6.8.0-41-generic x86_64
c
c ---- [ parsing ] -----------------------------------------------------------
c
c opened and reading DIMACS file:
c
c   /data/artifact/AMulet2.0_artifact/exp4/cnf_mfs_64/64_64_U1_DT_RC_Multgen_mfs.cnf
c
c parsed 'p cnf 34628 135374' header
c closing input after reading 2635211 bytes (3 MB)
c finished parsing after 0.02 seconds
c
c ---- [ options ] -----------------------------------------------------------
c
c --stable=0                       (different from default '1')
c
c ---- [ solving ] -----------------------------------------------------------
c
c  seconds switched rate     size/glue tier1  binary           remaining
c         MB reductions conflicts size  tier2     irredundant
c          level restarts redundant glue  trail           variables
c
c *  0.02 10 0 0 0  0 0   0   0 0.0 0 0 0 0 0% 27378 107994 34625 100%
c (  0.03 12 0 0 0  0 0   0   0 0.0 0 0 0 0 0% 27378 107994 34625 100%
c .  0.04 12 0 0 0  0 0   0   0 0.0 0 0 0 0 0% 27374 107994 34625 100%
c c  0.13 20 0 0 0  0 0   0   0 0.0 0 0 0 0 0% 34166 94410 31229 90%
c d  0.13 21 0 0 0  0 0   0   0 0.0 0 0 0 0 0% 27374 94410 31229 90%
c =  0.18 21 0 0 0  0 0   0   0 0.0 0 0 0 0 0% 27824 94410 31004 90%
c d  0.19 21 0 0 0  0 0   0   0 0.0 0 0 0 0 0% 27374 94410 31004 90%
c f  0.25 19 0 0 0  0 0   0   0 0.0 0 0 0 0 0% 30242 89806 32740 95%
c e  0.39 27 0 0 0  0 0   0   0 0.0 0 0 0 0 0% 8324 103816 21626 62%
c )  0.39 27 0 0 0  0 0   0   0 0.0 0 0 0 0 0% 8324 103816 21626 62%
c {  0.41 27 0 0 0  0 0   0   0 0.0 0 0 2 6 0% 8324 103816 21626 62%
c -  0.59 29 187 0 1 169 24 1002 770 3.3 20 6 3 12 23% 8334 103816 21626 62%
c -  0.85 29 323 0 2 291 29 2002 1446 3.4 26 8 3 12 24% 8368 103816 21626 62%
c c  1.02 22 398 0 2 316 28 2502 1903 3.5 26 7 3 12 24% 8372 103802 21622 62%
c d  1.03 22 398 0 2 316 28 2502 1903 3.5 26 7 3 12 24% 8364 103802 21622 62%
c u  1.05 22 398 0 2 316 28 2502 1434 3.5 26 7 3 12 24% 8367 103802 21622 62%
c v  1.07 22 398 0 2 316 28 2502 1286 3.5 26 7 3 12 24% 8367 103802 21622 62%
c w  1.09 22 398 0 2 316 28 2502 1286 3.5 26 7 3 12 24% 8367 103802 21622 62%
c =  1.18 22 398 0 2 316 28 2502 1286 3.5 26 7 3 12 24% 8685 103802 21463 62%
c d  1.19 22 398 0 2 316 28 2502 1282 3.5 26 7 3 12 24% 8362 103802 21463 62%
c
c  seconds   switched   rate       size/glue tier1     binary          remaining
c         MB  reductions conflicts       size  tier2      irredundant
c           level restarts    redundant    glue    trail          variables
c
c f  1.23 22 398 0 2 316 28 2502 1282 3.5 26 7 3 12 24% 9030 102498 22099 64%
c u  1.27 22 398 0 2 316 28 2502 1214 3.5 26 7 3 12 24% 9031 102498 22099 64%
c v  1.29 22 398 0 2 316 28 2502 1141 3.5 26 7 3 12 24% 9031 102498 22099 64%
c w  1.34 28 398 0 2 316 28 2502 1136 3.5 26 7 3 12 24% 9031 102498 22099 64%
c =  1.41 28 398 0 2 316 28 2502 1136 3.5 26 7 3 12 24% 9305 102498 21962 63%
c d  1.42 28 398 0 2 316 28 2502 1136 3.5 26 7 3 12 24% 8975 102498 21961 63%
c f  1.46 28 398 0 2 316 28 2502 1136 3.5 26 7 3 12 24% 9311 101994 22129 64%
c -  1.68 28 382 0 3 383 27 3416 1704 3.4 24 7 3 11 26% 9331 101994 22129 64%
c -  2.18 28 348 0 4 579 29 5149 2820 3.6 27 7 3 12 27% 9367 101994 22129 64%
c -  2.76 28 360 0 5 760 31 7150 3964 3.6 26 7 3 11 28% 9420 101994 22129 64%
c c  3.05 28 350 0 5 816 31 7707 4425 3.7 28 7 3 11 28% 9439 101913 22110 64%
c d  3.06 28 350 0 5 816 31 7707 4424 3.7 28 7 3 11 28% 9401 101913 22110 64%
c u  3.10 28 350 0 5 816 31 7707 3490 3.7 28 7 3 11 28% 9413 101913 22110 64%
c v  3.15 28 350 0 5 816 31 7707 3129 3.7 28 7 3 11 28% 9413 101913 22110 64%
c w  3.20 28 350 0 5 816 31 7707 3128 3.7 28 7 3 11 28% 9413 101913 22110 64%
c x  3.23 28 350 0 5 816 31 7707 3128 3.7 28 7 3 11 28% 9413 101522 22110 64%
c =  3.38 28 350 0 5 816 31 7707 3128 3.7 28 7 3 11 28% 10327 101522 21653 63%
c d  3.39 28 350 0 5 816 31 7707 3107 3.7 28 7 3 11 28% 9264 101522 21652 63%
c t  3.41 28 350 0 5 816 31 7707 3107 3.7 28 7 3 11 28% 9262 101522 21652 63%
c f  3.47 28 350 0 5 816 31 7707 3107 3.7 28 7 3 11 28% 10876 99101 22459 65%
c
c  seconds   switched   rate       size/glue tier1     binary          remaining
c         MB  reductions conflicts       size  tier2       irredundant
c           level restarts    redundant    glue    trail          variables
c
c u  3.51 28 350 0 5 816 31 7707 2885 3.7 28 7 3 11 28% 10880 99101 22459 65%
c v  3.55 28 350 0 5 816 31 7707 2802 3.7 28 7 3 11 28% 10880 99101 22459 65%
c w  3.62 28 350 0 5 816 31 7707 2796 3.7 28 7 3 11 28% 10880 99101 22459 65%
c x  3.66 28 350 0 5 816 31 7707 2796 3.7 28 7 3 11 28% 10880 95334 22459 65%
c =  3.81 28 350 0 5 816 31 7707 2796 3.7 28 7 3 11 28% 11592 95332 22103 64%
c d  3.81 28 350 0 5 816 31 7707 2785 3.7 28 7 3 11 28% 10770 95332 22102 64%
c t  3.83 28 350 0 5 816 31 7707 2785 3.7 28 7 3 11 28% 10749 95332 22102 64%
c f  3.89 28 350 0 5 816 31 7707 2785 3.7 28 7 3 11 28% 11214 94634 22335 65%
c -  4.12 28 357 0 6 881 29 9386 3672 3.6 26 7 2 11 27% 11245 94634 22335 65%
c o  4.26 28 356 0 6 926 30 10043 4214 3.7 26 7 2 11 27% 11269 94634 22335 65%
c -  4.67 28 365 0 7 1126 31 11838 5073 3.9 29 7 2 10 28% 11290 94634 22335 65%
c s  4.75 28 356 0 7 1138 30 12505 5536 3.9 28 7 2 10 27% 11331 93096 22335 65%
c e  4.84 28 356 0 7 1138 30 12505 5536 3.9 28 7 2 10 27% 9888 93931 21107 61%
c s  4.84 28 356 0 7 1138 30 12505 5536 3.9 28 7 2 10 27% 9889 92905 21107 61%
c e  4.85 28 356 0 7 1138 30 12505 5536 3.9 28 7 2 10 27% 9888 92906 21101 61%
c ^  4.85 28 356 0 7 1138 30 12505 5536 3.9 28 7 2 10 27% 9888 92906 21101 61%
c -  5.18 28 352 0 8 1276 30 14484 5857 3.9 29 7 2 9 27% 9965 92906 21101 61%
c d  5.39 28 368 0 8 1356 31 15783 6972 4.0 29 7 2 9 27% 9741 92906 20948 60%
c u  5.41 28 368 0 8 1356 31 15783 5592 4.0 29 7 2 9 27% 9757 92906 20948 60%
c v  5.45 28 368 0 8 1356 31 15783 4805 4.0 29 7 2 9 27% 9758 92906 20948 60%
c
c  seconds   switched    rate        size/glue tier1    binary         remaining
c         MB  reductions   conflicts       size  tier2     irredundant
c           level  restarts     redundant    glue   trail         variables
c
c w  5.49 28 368 0 8 1356 31 15783 4805 4.0 29 7 2 9 27% 9758 92906 20948 60%
c x  5.52 28 368 0 8 1356 31 15783 4805 4.0 29 7 2 9 27% 9758 91225 20948 60%
c =  5.66 28 368 0 8 1356 31 15783 4805 4.0 29 7 2 9 27% 11714 91225 19970 58%
c d  5.67 28 368 0 8 1356 31 15783 4667 4.0 29 7 2 9 27% 9331 91225 19969 58%
c t  5.68 28 368 0 8 1356 31 15783 4667 4.0 29 7 2 9 27% 9320 91225 19969 58%
c u  5.79 28 368 0 8 1356 31 15783 4258 4.0 29 7 2 9 27% 9322 91225 19969 58%
c v  5.80 28 368 0 8 1356 31 15783 4125 4.0 29 7 2 9 27% 9322 91225 19969 58%
c w  5.86 28 368 0 8 1356 31 15783 4102 4.0 29 7 2 9 27% 9322 91225 19969 58%
c x  5.88 28 368 0 8 1356 31 15783 4102 4.0 29 7 2 9 27% 9323 88946 19969 58%
c =  6.02 28 368 0 8 1356 31 15783 4102 4.0 29 7 2 9 27% 10959 88946 19151 55%
c d  6.03 28 368 0 8 1356 31 15783 4057 4.0 29 7 2 9 27% 9019 88946 19150 55%
c -  6.21 28 369 0 9 1414 31 17314 4762 4.0 28 7 2 9 27% 9040 88946 19150 55%
c o  6.58 28 366 0 9 1605 30 20073 7185 3.9 28 7 2 9 27% 9076 88946 19150 55%
c -  6.65 28 364 0 10 1644 30 20315 6595 3.9 29 7 2 8 27% 9077 88946 19150 55%
c -  7.07 28 360 0 11 1856 30 23477 8205 4.0 29 7 2 8 27% 9156 88946 19150 55%
c s  7.35 28 356 0 11 2007 31 25005 9518 4.1 30 7 2 8 27% 9197 87958 19150 55%
c e  7.47 28 356 0 11 2007 31 25005 9518 4.1 30 7 2 8 27% 7961 91542 16293 47%
c s  7.49 28 356 0 11 2007 31 25005 9518 4.1 30 7 2 8 27% 7961 87391 16293 47%
c e  7.54 28 356 0 11 2007 31 25005 9518 4.1 30 7 2 8 27% 7950 87411 16280 47%
c ^  7.54 28 356 0 11 2007 31 25005 9518 4.1 30 7 2 8 27% 7950 87411 16280 47%
c
c  seconds   switched     rate        size/glue tier1    binary         remaining
c         MB   reductions   conflicts       size  tier2     irredundant
c           level   restarts     redundant    glue   trail         variables
c
c -  7.83 28 339 0 12 2092 30 26794 7794 4.0 29 7 2 8 27% 7996 87411 16280 47%
c d  7.85 28 338 0 12 2096 29 26909 7875 4.0 28 7 2 8 27% 7886 87411 16212 47%
c u  7.88 28 338 0 12 2096 29 26909 6473 4.0 28 7 2 8 27% 7900 87411 16212 47%
c v  7.92 28 338 0 12 2096 29 26909 5480 4.0 28 7 2 8 27% 7900 87411 16212 47%
c w  7.93 28 338 0 12 2096 29 26909 5475 4.0 28 7 2 8 27% 7900 87411 16212 47%
c x  8.00 28 338 0 12 2096 29 26909 5474 4.0 28 7 2 8 27% 7901 84960 16212 47%
c =  8.17 28 338 0 12 2096 29 26909 5474 4.0 28 7 2 8 27% 10173 84960 15076 44%
c d  8.18 28 338 0 12 2096 29 26909 5323 4.0 28 7 2 8 27% 7844 84960 15076 44%
c t  8.19 28 338 0 12 2096 29 26909 5323 4.0 28 7 2 8 27% 7828 84960 15076 44%
c f  8.25 28 338 0 12 2096 29 26909 5323 4.0 28 7 2 8 27% 7826 84927 15085 44%
c u  8.27 28 338 0 12 2096 29 26909 4906 4.0 28 7 2 8 27% 7826 84927 15085 44%
c v  8.29 28 338 0 12 2096 29 26909 4790 4.0 28 7 2 8 27% 7826 84927 15085 44%
c w  8.29 28 338 0 12 2096 29 26909 4789 4.0 28 7 2 8 27% 7826 84927 15085 44%
c x  8.37 28 338 0 12 2096 29 26909 4789 4.0 28 7 2 8 27% 7826 78359 15085 44%
c =  8.52 28 338 0 12 2096 29 26909 4789 4.0 28 7 2 8 27% 9116 78333 14439 42%
c d  8.53 28 338 0 12 2096 29 26909 4707 4.0 28 7 2 8 27% 7797 78333 14439 42%
c -  8.88 28 312 0 13 2265 27 30259 6839 3.8 27 7 2 8 28% 7805 78331 14439 42%
c -  9.33 28 299 0 14 2488 26 33864 8923 3.7 26 7 2 7 28% 7829 78330 14439 42%
c -  9.81 28 288 0 15 2762 26 37605 10663 3.6 25 7 2 7 27% 7863 78328 14439 42%
c o  9.98 28 281 0 15 2897 25 40246 12906 3.5 25 7 2 7 26% 7886 78326 14439 42%
c
c  seconds   switched     rate         size/glue tier1    binary         remaining
c         MB   reductions   conflicts        size  tier2     irredundant
c           level   restarts      redundant    glue   trail         variables
c
c d 10.12 28 283 0 15 2978 25 41245 13715 3.5 25 7 2 7 26% 7840 78325 14411 42%
c u 10.15 28 283 0 15 2978 25 41245 11522 3.5 25 7 2 7 26% 7854 78325 14411 42%
c v 10.19 28 283 0 15 2978 25 41245 10604 3.5 25 7 2 7 26% 7856 78325 14411 42%
c w 10.22 28 283 0 15 2978 25 41245 10604 3.5 25 7 2 7 26% 7856 78325 14411 42%
c x 10.26 28 283 0 15 2978 25 41245 10604 3.5 25 7 2 7 26% 7856 73687 14411 42%
c = 10.40 28 283 0 15 2978 25 41245 10604 3.5 25 7 2 7 26% 7904 73687 14387 42%
c d 10.41 28 283 0 15 2978 25 41245 10527 3.5 25 7 2 7 26% 7839 73687 14383 42%
c t 10.42 28 283 0 15 2978 25 41245 10527 3.5 25 7 2 7 26% 7835 73687 14383 42%
c c 10.46 28 283 0 15 2978 25 41245 10527 3.5 25 7 2 7 26% 7857 73575 14369 41%
c d 10.46 28 283 0 15 2978 25 41245 10456 3.5 25 7 2 7 26% 7829 73575 14369 41%
c u 10.49 28 283 0 15 2978 25 41245 10032 3.5 25 7 2 7 26% 7836 73575 14369 41%
c v 10.52 28 283 0 15 2978 25 41245 9397 3.5 25 7 2 7 26% 7838 73575 14369 41%
c w 10.57 28 283 0 15 2978 25 41245 9373 3.5 25 7 2 7 26% 7838 73575 14369 41%
c x 10.60 28 283 0 15 2978 25 41245 9372 3.5 25 7 2 7 26% 7838 72983 14369 41%
c = 10.75 28 283 0 15 2978 25 41245 9372 3.5 25 7 2 7 26% 8832 72983 13872 40%
c d 10.76 28 283 0 15 2978 25 41245 8957 3.5 25 7 2 7 26% 7755 72983 13872 40%
c - 10.79 28 281 0 16 2980 25 41477 7999 3.5 25 7 2 6 26% 7755 72983 13872 40%
c - 11.10 28 264 0 17 3184 24 45477 10242 3.4 23 7 2 6 25% 7763 72981 13872 40%
c - 11.56 28 252 0 18 3529 24 49603 12305 3.4 23 7 2 6 25% 7799 72979 13872 40%
c s 11.80 28 245 0 18 3705 23 52108 14485 3.3 23 7 2 6 25% 7818 68423 13872 40%
c
c  seconds   switched     rate         size/glue tier1    binary         remaining
c         MB   reductions   conflicts        size  tier2     irredundant
c           level   restarts      redundant    glue   trail         variables
c
c e 11.88 28 245 0 18 3705 23 52108 14485 3.3 23 7 2 6 25% 6684 70500 12882 37%
c s 11.88 28 245 0 18 3705 23 52108 14485 3.3 23 7 2 6 25% 6684 69992 12882 37%
c e 11.89 28 245 0 18 3705 23 52108 14485 3.3 23 7 2 6 25% 6675 70019 12870 37%
c ^ 11.89 28 245 0 18 3705 23 52108 14485 3.3 23 7 2 6 25% 6675 70019 12870 37%
c - 12.13 28 240 0 19 3831 23 53845 12477 3.3 23 7 2 6 26% 6679 70017 12870 37%
c - 12.72 28 232 0 20 4338 23 58207 14483 3.2 23 7 2 6 26% 6697 70017 12870 37%
c d 12.77 28 231 0 20 4371 23 58900 14962 3.2 23 7 2 6 26% 6684 70017 12858 37%
c u 12.82 28 231 0 20 4371 23 58900 12288 3.2 23 7 2 6 26% 6701 70017 12858 37%
c v 12.86 28 231 0 20 4371 23 58900 10692 3.2 23 7 2 6 26% 6703 70017 12858 37%
c w 12.88 28 231 0 20 4371 23 58900 10659 3.2 23 7 2 6 26% 6703 70017 12858 37%
c x 12.93 28 231 0 20 4371 23 58900 10659 3.2 23 7 2 6 26% 6703 69736 12858 37%
c d 13.14 28 231 0 20 4371 23 58900 10655 3.2 23 7 2 6 26% 6697 69736 12855 37%
c t 13.15 28 231 0 20 4371 23 58900 10655 3.2 23 7 2 6 26% 6691 69736 12855 37%
c f 13.17 28 231 0 20 4371 23 58900 10655 3.2 23 7 2 6 26% 6693 69728 12856 37%
c u 13.21 28 231 0 20 4371 23 58900 10185 3.2 23 7 2 6 26% 6695 69728 12856 37%
c v 13.23 28 231 0 20 4371 23 58900 9897 3.2 23 7 2 6 26% 6695 69728 12856 37%
c w 13.25 28 231 0 20 4371 23 58900 9881 3.2 23 7 2 6 26% 6695 69728 12856 37%
c x 13.34 28 231 0 20 4371 23 58900 9880 3.2 23 7 2 6 26% 6695 68421 12856 37%
c - 13.75 28 223 0 21 4628 22 62680 11781 3.1 22 7 2 6 26% 6724 68421 12856 37%
c - 14.31 28 216 0 22 5078 22 67262 14204 3.1 22 7 2 6 26% 6754 68421 12856 37%
c
c  seconds   switched     rate         size/glue tier1    binary         remaining
c         MB   reductions   conflicts        size  tier2     irredundant
c           level   restarts      redundant    glue   trail         variables
c
c o 14.68 28 212 0 22 5353 22 71017 17244 3.1 22 7 2 6 26% 6809 68421 12856 37%
c - 14.82 28 211 0 23 5477 22 71953 16066 3.1 22 7 2 6 26% 6815 68421 12856 37%
c - 15.36 28 205 0 24 5925 22 76748 16000 3.1 22 7 1 5 26% 6844 68421 12856 37%
c d 15.76 28 204 0 24 6248 22 80009 18668 3.1 22 7 1 5 26% 6726 68420 12782 37%
c u 15.79 28 204 0 24 6248 22 80009 16983 3.1 22 7 1 5 26% 6746 68420 12782 37%
c v 15.84 28 204 0 24 6248 22 80009 14280 3.1 22 7 1 5 26% 6760 68420 12782 37%
c w 15.92 28 204 0 24 6248 22 80009 14236 3.1 22 7 1 5 26% 6760 68420 12782 37%
c x 15.96 28 204 0 24 6248 22 80009 14236 3.1 22 7 1 5 26% 6760 68302 12782 37%
c = 16.19 28 204 0 24 6248 22 80009 14236 3.1 22 7 1 5 26% 6892 68302 12716 37%
c d 16.19 28 204 0 24 6248 22 80009 14105 3.1 22 7 1 5 26% 6726 68302 12704 37%
c t 16.20 28 204 0 24 6248 22 80009 14105 3.1 22 7 1 5 26% 6724 68302 12704 37%
c u 16.25 28 204 0 24 6248 22 80009 13696 3.1 22 7 1 5 26% 6731 68302 12704 37%
c v 16.29 28 204 0 24 6248 22 80009 13164 3.1 22 7 1 5 26% 6733 68302 12704 37%
c w 16.45 28 204 0 24 6248 22 80009 12762 3.1 22 7 1 5 26% 6733 68302 12704 37%
c = 16.73 28 204 0 24 6248 22 80009 12762 3.1 22 7 1 5 26% 7367 68298 12387 36%
c d 16.74 28 204 0 24 6248 22 80009 12250 3.1 22 7 1 5 26% 6666 68298 12387 36%
c - 16.94 28 202 0 25 6354 22 81650 11489 3.0 22 7 1 5 26% 6667 68298 12387 36%
c - 17.49 28 195 0 26 6764 22 86651 13534 3.0 22 7 1 5 26% 6700 68298 12387 36%
c - 18.10 28 193 0 27 7282 22 91751 15418 3.0 22 7 1 5 26% 6726 68298 12387 36%
c s 18.81 28 191 0 27 7876 22 95862 19129 3.0 22 7 1 5 26% 6748 66367 12387 36%
c
c  seconds   switched     rate         size/glue tier1    binary         remaining
c         MB   reductions   conflicts        size  tier2     irredundant
c           level   restarts      redundant    glue   trail         variables
c
c e 18.88 28 191 0 27 7876 22 95862 19129 3.0 22 7 1 5 26% 4531 72270 11164 32%
c 2 18.89 28 191 0 27 7876 22 95862 19129 3.0 22 7 1 5 26% 4526 72270 11164 32%
c s 18.90 28 191 0 27 7876 22 95862 19129 3.0 22 7 1 5 26% 4526 72120 11164 32%
c e 18.90 28 191 0 27 7876 22 95862 19129 3.0 22 7 1 5 26% 4520 72167 11147 32%
c ^ 18.90 28 191 0 27 7876 22 95862 19129 3.0 22 7 1 5 26% 4520 72167 11147 32%
c - 19.04 28 190 0 28 7959 22 96948 14139 3.0 22 7 1 5 26% 4523 72167 11147 32%
c - 19.73 28 184 0 29 8482 22 102239 16307 3.0 22 7 1 5 26% 4552 72167 11147 32%
c c 20.05 28 183 0 29 8718 22 104680 18233 3.0 22 7 1 5 26% 4647 71777 11085 32%
c d 20.05 28 183 0 29 8718 22 104680 17924 3.0 22 7 1 5 26% 4523 71777 11085 32%
c u 20.09 28 183 0 29 8718 22 104680 15682 3.0 22 7 1 5 26% 4553 71777 11085 32%
c v 20.14 28 183 0 29 8718 22 104680 12935 3.0 22 7 1 5 26% 4562 71777 11085 32%
c w 20.26 28 183 0 29 8718 22 104680 12864 3.0 22 7 1 5 26% 4562 71777 11085 32%
c x 20.34 28 183 0 29 8718 22 104680 12864 3.0 22 7 1 5 26% 4562 70689 11085 32%
c = 20.71 28 183 0 29 8718 22 104680 12864 3.0 22 7 1 5 26% 4870 70653 10926 32%
c d 20.71 28 183 0 29 8718 22 104680 12548 3.0 22 7 1 5 26% 4500 70653 10926 32%
c t 20.72 28 183 0 29 8718 22 104680 12548 3.0 22 7 1 5 26% 4498 70653 10926 32%
c f 20.76 28 183 0 29 8718 22 104680 12548 3.0 22 7 1 5 26% 4497 70640 10927 32%
c u 20.80 28 183 0 29 8718 22 104680 11983 3.0 22 7 1 5 26% 4497 70640 10927 32%
c v 20.83 28 183 0 29 8718 22 104680 11456 3.0 22 7 1 5 26% 4498 70640 10927 32%
c w 20.94 28 183 0 29 8718 22 104680 11026 3.0 22 7 1 5 26% 4498 70640 10927 32%
c
c  seconds   switched     rate          size/glue tier1    binary         remaining
c         MB   reductions   conflicts         size  tier2     irredundant
c           level   restarts       redundant    glue   trail         variables
c
c x 21.01 28 183 0 29 8718 22 104680 11026 3.0 22 7 1 5 26% 4498 70599 10927 32%
c = 21.39 28 183 0 29 8718 22 104680 11026 3.0 22 7 1 5 26% 4528 70599 10912 32%
c d 21.39 28 183 0 29 8718 22 104680 11004 3.0 22 7 1 5 26% 4491 70599 10912 32%
c - 21.80 28 180 0 30 9016 22 107624 11751 2.9 22 8 1 5 26% 4491 70599 10912 32%
c o 22.19 28 178 0 30 9298 22 111039 14888 2.9 22 8 1 5 27% 4495 70599 10912 32%
c - 22.50 28 177 0 31 9559 22 113101 14304 2.9 22 8 1 5 27% 4499 70599 10912 32%
c - 23.17 28 174 0 32 10087 22 118670 16503 2.9 22 8 1 5 27% 4522 70598 10912 32%
c - 23.98 28 169 0 33 10620 21 124326 18087 2.9 22 8 1 5 27% 4540 70597 10912 32%
c i 24.32 28 168 0 33 10875 21 126515 19995 2.9 22 8 1 5 27% 4556 70597 10911 32%
c - 24.83 28 166 0 34 11206 21 130070 19438 2.8 22 8 1 5 27% 4558 70597 10911 32%
c i 25.17 28 165 0 34 11439 21 132501 21536 2.8 22 8 1 5 27% 4593 70597 10910 32%
c d 25.20 28 165 0 34 11452 21 132985 21677 2.8 22 8 1 5 27% 4534 70581 10871 31%
c d 25.20 28 165 0 34 11452 21 132985 21671 2.8 22 8 1 5 27% 4526 70581 10867 31%
c u 25.24 28 165 0 34 11452 21 132985 19483 2.8 22 8 1 5 27% 4551 70581 10865 31%
c v 25.32 28 165 0 34 11452 21 132985 15792 2.8 22 8 1 5 27% 4562 70581 10865 31%
c w 25.47 28 165 0 34 11452 21 132985 15291 2.8 22 8 1 5 27% 4560 70581 10865 31%
c = 25.90 28 165 0 34 11452 21 132985 15291 2.8 22 8 1 5 27% 4582 70573 10854 31%
c d 25.90 28 165 0 34 11452 21 132985 15259 2.8 22 8 1 5 27% 4548 70565 10849 31%
c d 25.91 28 165 0 34 11452 21 132985 15259 2.8 22 8 1 5 27% 4538 70565 10844 31%
c t 25.91 28 165 0 34 11452 21 132985 15259 2.8 22 8 1 5 27% 4529 70565 10844 31%
c
c  seconds   switched      rate          size/glue tier1    binary         remaining
c         MB   reductions    conflicts         size  tier2     irredundant
c           level   restarts        redundant    glue   trail         variables
c
c c 25.95 28 165 0 34 11452 21 132985 15259 2.8 22 8 1 5 27% 4557 70343 10823 31%
c d 25.95 28 165 0 34 11452 21 132985 15208 2.8 22 8 1 5 27% 4515 70343 10823 31%
c u 25.99 28 165 0 34 11452 21 132985 14632 2.8 22 8 1 5 27% 4528 70343 10823 31%
c v 26.03 28 165 0 34 11452 21 132985 13889 2.8 22 8 1 5 27% 4528 70343 10823 31%
c w 26.15 28 165 0 34 11452 21 132985 13763 2.8 22 8 1 5 27% 4528 70343 10823 31%
c x 26.26 28 165 0 34 11452 21 132985 13739 2.8 22 8 1 5 27% 4530 68600 10822 31%
c = 26.70 28 165 0 34 11452 21 132985 13739 2.8 22 8 1 5 27% 4598 68576 10784 31%
c d 26.70 28 165 0 34 11452 21 132985 13663 2.8 22 8 1 5 27% 4517 68576 10784 31%
c t 26.71 28 165 0 34 11452 21 132985 13663 2.8 22 8 1 5 27% 4516 68576 10784 31%
c i 26.72 28 165 0 34 11452 21 132985 13663 2.8 22 8 1 5 27% 4516 68576 10784 31%
c - 27.11 28 164 0 35 11709 21 135900 13843 2.8 22 8 1 5 27% 4518 68576 10784 31%
c i 27.39 28 162 0 35 11908 21 138747 16420 2.8 22 8 1 5 27% 4532 68576 10782 31%
c i 27.65 28 160 0 35 12095 21 141037 18522 2.8 22 8 1 5 27% 4549 68576 10767 31%
c i 27.72 28 160 0 35 12142 21 141300 18769 2.8 22 8 1 5 27% 4550 68576 10766 31%
c - 27.77 28 160 0 36 12186 21 141816 15937 2.8 22 8 1 5 28% 4567 68576 10766 31%
c i 28.11 28 159 0 36 12443 21 143852 17839 2.8 22 8 1 5 28% 4574 68576 10765 31%
c i 28.16 28 159 0 36 12486 21 144162 18104 2.8 22 8 1 5 28% 4586 68576 10764 31%
c i 28.35 28 157 0 36 12620 21 145901 19712 2.7 22 8 1 5 28% 4590 68576 10763 31%
c - 28.77 28 156 0 37 12890 21 147816 17926 2.7 22 8 1 5 28% 4599 68576 10763 31%
c i 28.89 28 155 0 37 12984 21 148975 18963 2.7 22 8 1 5 28% 4612 68576 10762 31%
c
c  seconds   switched      rate          size/glue tier1    binary         remaining
c         MB   reductions    conflicts         size  tier2     irredundant
c           level   restarts        redundant    glue   trail         variables
c
c i 28.91 28 155 0 37 13002 21 149239 19197 2.7 22 8 1 5 28% 4614 68576 10761 31%
c i 28.94 28 155 0 37 13020 20 149459 19383 2.7 22 8 1 5 28% 4618 68576 10760 31%
c i 29.53 28 152 0 37 13401 20 153435 23070 2.7 21 8 1 5 28% 4638 68576 10759 31%
c i 29.53 28 152 0 37 13403 20 153497 23122 2.7 21 8 1 5 28% 4641 68576 10758 31%
c - 29.57 28 152 0 38 13424 20 153914 19048 2.7 21 8 1 5 28% 4647 68576 10758 31%
c i 29.57 28 152 0 38 13424 20 154068 19127 2.7 21 8 1 5 28% 4660 68576 10757 31%
c i 29.79 28 150 0 38 13539 20 155765 20708 2.7 21 8 1 5 28% 4672 68576 10756 31%
c i 29.82 28 150 0 38 13557 20 155893 20831 2.7 21 8 1 5 28% 4672 68576 10755 31%
c i 29.87 28 149 0 38 13585 20 156577 21419 2.7 21 8 1 5 27% 4681 68576 10754 31%
c s 30.08 28 148 0 38 13669 20 158035 22718 2.7 21 8 1 5 27% 4677 68259 10754 31%
c e 30.21 28 148 0 38 13669 20 158035 22718 2.7 21 8 1 5 27% 2381 78104 9140 26%
c s 30.23 28 148 0 38 13669 20 158035 22718 2.7 21 8 1 5 27% 2381 77232 9140 26%
c e 30.24 28 148 0 38 13669 20 158035 22718 2.7 21 8 1 5 27% 2375 77403 9096 26%
c ^ 30.24 28 148 0 38 13669 20 158035 22718 2.7 21 8 1 5 27% 2375 77403 9096 26%
c - 30.43 28 146 0 39 13771 19 160078 14126 2.6 21 8 1 5 27% 2376 77402 9096 26%
c i 30.44 28 146 0 39 13783 19 160162 14188 2.6 21 8 1 5 27% 2378 77402 9095 26%
c o 30.51 28 145 0 39 13812 19 161158 15105 2.6 21 8 1 5 27% 2378 77402 9095 26%
c i 30.58 28 145 0 39 13887 19 161853 15693 2.6 21 8 1 5 27% 2385 77400 9094 26%
c i 30.64 28 144 0 39 13920 19 162694 16475 2.6 21 8 1 5 27% 2388 77400 9093 26%
c i 30.66 28 144 0 39 13930 19 162949 16696 2.6 21 8 1 5 27% 2391 77400 9092 26%
c
c  seconds   switched      rate          size/glue tier1    binary        remaining
c         MB   reductions    conflicts         size  tier2     irredundant
c           level   restarts        redundant    glue   trail        variables
c
c i 30.68 28 144 0 39 13943 19 163158 16873 2.6 21 8 1 5 27% 2396 77399 9091 26%
c i 30.72 28 144 0 39 13953 19 163518 17172 2.6 21 8 1 5 27% 2404 77399 9090 26%
c i 30.75 28 143 0 39 13973 19 163923 17539 2.6 21 8 1 5 27% 2405 77399 9089 26%
c i 30.75 28 143 0 39 13973 19 163931 17542 2.6 21 8 1 5 27% 2406 77399 9081 26%
c i 30.75 28 143 0 39 13973 19 163936 17540 2.6 21 8 1 5 27% 2408 77399 9080 26%
c i 30.76 28 143 0 39 13973 19 163966 17563 2.6 21 8 1 5 27% 2411 77397 9077 26%
c } 30.76 28 143 0 39 13973 19 163968 17563 2.6 21 8 1 5 27% 2411 77397 9074 26%
c 0 30.76 28 143 0 39 13973 19 163968 17563 2.6 21 8 1 5 27% 2411 77397 9074 26%
c
c ---- [ result ] ------------------------------------------------------------
c
s UNSATISFIABLE
c
c ---- [ profiling ] ---------------------------------------------------------
c
c          21.58   70.16 %  search
c          21.58   70.16 %  focused
c           8.77   28.51 %  simplify
c           8.26   26.86 %  probe
c           3.72   12.08 %  sweep
c           3.08   10.00 %  vivify
c           0.72    2.35 %  eliminate
c           0.56    1.81 %  factor
c           0.40    1.29 %  substitute
c           0.36    1.19 %  congruence
c           0.35    1.15 %  preprocess
c           0.18    0.58 %  reduce
c           0.13    0.43 %  fastel
c           0.12    0.39 %  subsume
c           0.10    0.33 %  transitive
c           0.05    0.15 %  backbone
c           0.03    0.10 %  lucky
c           0.02    0.07 %  parse
c =============================================
c          30.76  100.00 %  total
c
c ---- [ statistics ] --------------------------------------------------------
c
c chronological:                         4894                3 %  conflicts
c conflicts:                           163968             5331.24 per second
c congruent:                             3516               10 %  variables
c decisions:                          3179157               19.39 per conflict
c eliminated:                           19117               55 %  variables
c factored:                              3591               10 %  variables
c fast_eliminated:                      11114               58 %  eliminated
c fast_subsumed:                           52                0 %  per subsumed
c iterations:                              29                0 %  variables
c propagations:                     138420800          4500601    per second
c reductions:                              39             4204    interval
c reordered:                                6            27328    interval
c restarts:                             13973               12    interval
c strengthened:                          4673                0 %  checks
c substituted:                           9957               29 %  variables
c subsumed:                             15956                0 %  checks
c switched:                                 0                0    interval
c vivified:                             75360               13 %  checks
c
c ---- [ glue usage ] --------------------------------------------------------
c
c focused glue 1 used 258846 clauses 57.96% accumulated 57.96% tier1
c focused glue 2 used  92840 clauses 20.79% accumulated 78.75%
c focused glue 3 used  28350 clauses  6.35% accumulated 85.09%
c focused glue 4 used  16609 clauses  3.72% accumulated 88.81%
c focused glue 5 used  10870 clauses  2.43% accumulated 91.25% tier2
c
c ---- [ resources ] ---------------------------------------------------------
c
c maximum-resident-set-size:         30560256 bytes         29 MB
c process-time:                            31s              30.76 seconds
c
c ---- [ shutting down ] -----------------------------------------------------
c
c exit 20
